NAME : morphed20-2-22
COMMENT : Generated using the function morphInstances from the R-package netgen (Bossek,2015) - Number of clusters: 2 Alpha: 0.5
TYPE : TSP
DIMENSION : 20
EDGE_WEIGHT_TYPE : EUC_2D
NODE_COORD_SECTION
1 23.5684013738 24.856624225
2 28.6047001226 39.8573706673
3 94.5411605178 61.746434485
4 61.122504406 78.0659219398
5 89.8769676143 79.2720627866
6 72.6202609058 92.4589033899
7 68.4680539343 52.7095216826
8 73.3890722198 99.0740847422
9 21.0003748852 28.6947948882
10 20.4627704598 27.3612329635
11 93.4805967434 42.45626286
12 40.2406992273 30.9594503672
13 66.0123953282 75.5783851854
14 85.2726781476 40.7534006752
15 60.126423596 88.0319894927
16 5.1977393637 14.6401005724
17 21.300036792 64.3878020399
18 11.6303480111 14.3231065343
19 33.6497327808 16.8931404637
20 25.0450668562 51.2788298456
EOF
